p cnf 14 64
2 -5 11 0
-3 -5 14 0
-4 -6 11 0
4 -7 -14 0
-1 10 -11 0
6 -7 -11 0
1 -9 10 0
-9 11 12 0
2 9 13 0
-5 -8 12 0
-8 -12 -14 0
2 6 10 0
5 7 11 0
-4 -8 10 0
3 -6 14 0
2 4 6 0
1 -7 -11 0
-9 10 -11 0
4 12 14 0
1 5 13 0
4 -9 13 0
4 -5 -6 0
1 4 -9 0
2 -4 -9 0
-2 -6 -8 0
-7 -8 9 0
-6 -9 14 0
-1 4 13 0
-3 -10 -11 0
10 13 -14 0
-5 -6 -11 0
-3 7 9 0
-1 -2 6 0
-7 -9 12 0
-1 10 -12 0
6 9 -14 0
-5 -7 10 0
-5 -7 -10 0
2 -4 -5 0
-1 4 -6 0
2 4 -5 0
-1 -9 -11 0
-2 3 9 0
-1 4 -12 0
7 13 -14 0
1 12 -13 0
2 3 -11 0
-2 8 9 0
-2 5 -7 0
-10 11 13 0
12 -13 -14 0
-1 -5 -13 0
5 6 -13 0
-6 10 -13 0
-1 -2 -9 0
-3 -8 9 0
-6 10 13 0
1 -7 -12 0
-3 -6 14 0
1 2 -5 0
4 8 -11 0
-4 -5 -10 0
2 11 -13 0
-1 2 3 0
